(set-logic QF_S)
(declare-fun var0 () String)
(assert (str.in.re var0 (re.++ (re.union (re.+ (str.to.re "00")) (re.+ (str.to.re "111"))) (re.++ (re.* (re.+ (str.to.re "2"))) (re.++ (re.union (re.* (str.to.re "33")) (re.* (str.to.re "4"))) (re.++ (re.union (re.+ (str.to.re "555")) (re.+ (str.to.re "666"))) (re.++ (re.+ (re.* (str.to.re "77"))) (re.++ (re.+ (re.+ (str.to.re "888"))) (re.++ (re.+ (re.* (str.to.re "9"))) (re.++ (re.+ (re.union (str.to.re "aaa") (str.to.re "bb"))) (re.++ (re.* (re.* (str.to.re "c"))) (re.++ (re.+ (re.union (str.to.re "ddd") (str.to.re "e"))) (re.++ (re.* (re.union (str.to.re "fff") (str.to.re "gg"))) (re.++ (re.* (re.union (str.to.re "hh") (str.to.re "i"))) (re.++ (re.+ (re.* (str.to.re "jj"))) (re.++ (re.* (re.union (str.to.re "kkk") (str.to.re "lll"))) (re.++ (re.+ (re.* (str.to.re "m"))) (re.++ (re.+ (re.* (str.to.re "n"))) (re.++ (re.* (re.union (str.to.re "o") (str.to.re "ppp"))) (re.++ (re.union (re.union (str.to.re "q") (str.to.re "r")) (re.union (str.to.re "s") (str.to.re "ttt"))) (re.++ (re.union (re.union (str.to.re "uuu") (str.to.re "v")) (re.union (str.to.re "www") (str.to.re "xx"))) (re.++ (re.union (re.* (str.to.re "yy")) (re.* (str.to.re "zzz"))) (re.++ (re.union (re.union (str.to.re "A") (str.to.re "BB")) (re.union (str.to.re "CC") (str.to.re "DDD"))) (re.++ (re.* (re.* (str.to.re "EE"))) (re.++ (re.+ (re.* (str.to.re "FFF"))) (re.++ (re.* (re.union (str.to.re "GG") (str.to.re "HH"))) (re.++ (re.* (re.+ (str.to.re "I"))) (re.++ (re.union (re.+ (str.to.re "J")) (re.+ (str.to.re "K"))) (re.++ (re.+ (re.union (str.to.re "L") (str.to.re "M"))) (re.++ (re.union (re.union (str.to.re "NNN") (str.to.re "O")) (re.union (str.to.re "PPP") (str.to.re "Q"))) (re.++ (re.union (re.+ (str.to.re "R")) (re.+ (str.to.re "SS"))) (re.++ (re.union (re.* (str.to.re "TT")) (re.* (str.to.re "UU"))) (re.++ (re.* (re.+ (str.to.re "VVV"))) (re.++ (re.+ (re.* (str.to.re "WWW"))) (re.++ (re.* (re.+ (str.to.re "XXX"))) (re.++ (re.* (re.+ (str.to.re "Y"))) (re.++ (re.* (re.* (str.to.re "ZZZ"))) (re.++ (re.* (re.* (str.to.re "!!"))) (re.++ (re.+ (re.* (str.to.re """"""""))) (re.++ (re.* (re.union (str.to.re "##") (str.to.re "$$$"))) (re.++ (re.union (re.* (str.to.re "%")) (re.* (str.to.re "&&&"))) (re.++ (re.union (re.union (str.to.re "'") (str.to.re "((")) (re.union (str.to.re ")") (str.to.re "**"))) (re.union (re.* (str.to.re "+++")) (re.* (str.to.re ",,,")))))))))))))))))))))))))))))))))))))))))))))
(check-sat)